
Presolve eliminates 2068740 constraints and 2064420 variables.
Adjusted problem:
895284 variables:
	888012 binary variables
	7272 linear variables
905950 constraints, all linear; 7048836 nonzeros
	14950 equality constraints
	891000 inequality constraints
1 linear objective; 880740 nonzeros.

Gurobi 9.1.2: mipgap 0.01
outlev 1
timelim 3600
Gurobi Optimizer version 9.1.2 build v9.1.2rc0 (linux64)
Thread count: 4 physical cores, 4 logical processors, using up to 4 threads
Optimize a model with 905950 rows, 895284 columns and 7048836 nonzeros
Model fingerprint: 0x8fadb753
Variable types: 7272 continuous, 888012 integer (888012 binary)
Coefficient statistics:
  Matrix range     [2e-01, 2e+02]
  Objective range  [4e+01, 4e+03]
  Bounds range     [1e+00, 2e+02]
  RHS range        [1e+00, 2e+02]
Presolve removed 0 rows and 0 columns (presolve time = 9s) ...
Presolve removed 0 rows and 0 columns (presolve time = 13s) ...
Presolve removed 0 rows and 0 columns (presolve time = 15s) ...
Presolve removed 0 rows and 0 columns (presolve time = 20s) ...
Presolve removed 14544 rows and 0 columns (presolve time = 25s) ...
Presolve removed 14544 rows and 0 columns (presolve time = 32s) ...
Presolve removed 14544 rows and 0 columns (presolve time = 40s) ...
Presolve removed 14544 rows and 0 columns (presolve time = 46s) ...
Presolve removed 14544 rows and 0 columns
Presolve time: 45.66s
Presolved: 891406 rows, 895284 columns, 4420368 nonzeros
Variable types: 7272 continuous, 888012 integer (888012 binary)

Deterministic concurrent LP optimizer: primal simplex, dual simplex, and barrier
Showing barrier log only...

Root barrier log...

Elapsed ordering time = 5s
Elapsed ordering time = 10s
Elapsed ordering time = 15s
Elapsed ordering time = 20s
Elapsed ordering time = 25s
Elapsed ordering time = 30s
Elapsed ordering time = 35s
Elapsed ordering time = 40s
Elapsed ordering time = 45s
Elapsed ordering time = 50s
Elapsed ordering time = 55s
Elapsed ordering time = 60s
Elapsed ordering time = 65s
Elapsed ordering time = 70s
Elapsed ordering time = 75s
Elapsed ordering time = 80s
Elapsed ordering time = 85s
Elapsed ordering time = 90s
Elapsed ordering time = 95s
Elapsed ordering time = 100s
Elapsed ordering time = 105s
Elapsed ordering time = 110s
Elapsed ordering time = 115s
Elapsed ordering time = 120s
Elapsed ordering time = 125s
Elapsed ordering time = 130s
Elapsed ordering time = 135s
Elapsed ordering time = 140s
Elapsed ordering time = 197s
Elapsed ordering time = 205s
Elapsed ordering time = 212s
Elapsed ordering time = 215s
Elapsed ordering time = 222s
Elapsed ordering time = 226s
Elapsed ordering time = 232s
Elapsed ordering time = 236s
Elapsed ordering time = 243s
Elapsed ordering time = 246s
Elapsed ordering time = 253s
Elapsed ordering time = 256s
Elapsed ordering time = 263s
Elapsed ordering time = 267s
Elapsed ordering time = 271s
Elapsed ordering time = 276s
Elapsed ordering time = 281s
Elapsed ordering time = 286s
Elapsed ordering time = 291s
Elapsed ordering time = 296s
Elapsed ordering time = 301s
Elapsed ordering time = 306s
Elapsed ordering time = 310s
Elapsed ordering time = 315s
Elapsed ordering time = 321s
Elapsed ordering time = 325s
Elapsed ordering time = 330s
Elapsed ordering time = 335s
Elapsed ordering time = 340s
Elapsed ordering time = 345s
Elapsed ordering time = 350s
Elapsed ordering time = 355s
Elapsed ordering time = 360s
Elapsed ordering time = 365s
Elapsed ordering time = 370s
Elapsed ordering time = 375s
Elapsed ordering time = 380s
Elapsed ordering time = 385s
Elapsed ordering time = 390s
Elapsed ordering time = 395s
Elapsed ordering time = 400s
Elapsed ordering time = 405s
Elapsed ordering time = 410s
Elapsed ordering time = 415s
Elapsed ordering time = 420s
Elapsed ordering time = 425s
Elapsed ordering time = 430s
Elapsed ordering time = 435s
Elapsed ordering time = 440s
Elapsed ordering time = 445s
Elapsed ordering time = 450s
Elapsed ordering time = 455s
Elapsed ordering time = 460s
Elapsed ordering time = 466s
Elapsed ordering time = 470s
Elapsed ordering time = 532s
Elapsed ordering time = 540s
Elapsed ordering time = 543s
Elapsed ordering time = 547s
Elapsed ordering time = 552s
Elapsed ordering time = 556s
Elapsed ordering time = 561s
Elapsed ordering time = 568s
Elapsed ordering time = 571s
Elapsed ordering time = 578s
Elapsed ordering time = 582s
Elapsed ordering time = 588s
Elapsed ordering time = 591s
Elapsed ordering time = 598s
Elapsed ordering time = 600s
Elapsed ordering time = 605s
Elapsed ordering time = 611s
Elapsed ordering time = 616s
Elapsed ordering time = 620s
Elapsed ordering time = 627s
Elapsed ordering time = 630s
Elapsed ordering time = 636s
Elapsed ordering time = 641s
Elapsed ordering time = 645s
Elapsed ordering time = 650s
Elapsed ordering time = 655s
Elapsed ordering time = 660s
Elapsed ordering time = 665s
Elapsed ordering time = 670s
Elapsed ordering time = 675s
Elapsed ordering time = 680s
Elapsed ordering time = 685s
Elapsed ordering time = 690s
Elapsed ordering time = 695s
Elapsed ordering time = 700s
Elapsed ordering time = 705s
Elapsed ordering time = 710s
Elapsed ordering time = 715s
Elapsed ordering time = 720s
Elapsed ordering time = 725s
Elapsed ordering time = 730s
Elapsed ordering time = 769s
Elapsed ordering time = 775s
Elapsed ordering time = 777s
Elapsed ordering time = 780s
Elapsed ordering time = 788s
Elapsed ordering time = 790s
Elapsed ordering time = 797s
Elapsed ordering time = 801s
Elapsed ordering time = 805s
Elapsed ordering time = 810s
Elapsed ordering time = 819s
Elapsed ordering time = 820s
Elapsed ordering time = 826s
Elapsed ordering time = 831s
Elapsed ordering time = 835s
Elapsed ordering time = 841s
Elapsed ordering time = 846s
Elapsed ordering time = 851s
Elapsed ordering time = 855s
Elapsed ordering time = 860s
Elapsed ordering time = 865s
Elapsed ordering time = 870s
Elapsed ordering time = 875s
Elapsed ordering time = 880s
Elapsed ordering time = 885s
Elapsed ordering time = 890s
Elapsed ordering time = 895s
Elapsed ordering time = 900s
Elapsed ordering time = 905s
Elapsed ordering time = 910s
Elapsed ordering time = 915s
Elapsed ordering time = 920s
Elapsed ordering time = 925s
Elapsed ordering time = 930s
Elapsed ordering time = 935s
Elapsed ordering time = 940s
Elapsed ordering time = 945s
Elapsed ordering time = 950s
Elapsed ordering time = 955s
Elapsed ordering time = 960s
Elapsed ordering time = 965s
Elapsed ordering time = 970s
Elapsed ordering time = 975s
Elapsed ordering time = 1013s
Elapsed ordering time = 1018s
Elapsed ordering time = 1021s
Elapsed ordering time = 1025s
Elapsed ordering time = 1031s
Elapsed ordering time = 1036s
Elapsed ordering time = 1041s
Elapsed ordering time = 1045s
Elapsed ordering time = 1051s
Elapsed ordering time = 1056s
Elapsed ordering time = 1061s
Elapsed ordering time = 1066s
Elapsed ordering time = 1071s
Elapsed ordering time = 1075s
Elapsed ordering time = 1080s
Elapsed ordering time = 1085s
Elapsed ordering time = 1090s
Elapsed ordering time = 1095s
Elapsed ordering time = 1100s
Elapsed ordering time = 1105s
Elapsed ordering time = 1110s
Elapsed ordering time = 1115s
Elapsed ordering time = 1120s
Elapsed ordering time = 1125s
Elapsed ordering time = 1130s
Elapsed ordering time = 1171s
Ordering time: 1170.68s

Barrier performed 0 iterations in 1320.24 seconds
Barrier solve interrupted - model solved by another algorithm

Concurrent spin time: 521.60s (can be avoided by choosing Method=3)

Solved with dual simplex

Root relaxation: objective 1.239130e+05, 45008 iterations, 1216.85 seconds
Total elapsed time = 1335.77s
Total elapsed time = 1342.54s
Total elapsed time = 1348.86s
Total elapsed time = 1351.54s

    Nodes    |    Current Node    |     Objective Bounds      |     Work
 Expl Unexpl |  Obj  Depth IntInf | Incumbent    BestBd   Gap | It/Node Time

     0     0 123913.000    0 1496          - 123913.000      -     - 1362s
     0     0 123913.000    0 1578          - 123913.000      -     - 1702s
     0     0 123933.250    0 1695          - 123933.250      -     - 1815s
     0     0 124115.500    0 1619          - 124115.500      -     - 1849s
     0     0 124115.500    0 1626          - 124115.500      -     - 1875s
     0     0 124115.500    0 1486          - 124115.500      -     - 2027s
     0     0 124115.500    0 1554          - 124115.500      -     - 2054s
     0     0 124115.500    0 1588          - 124115.500      -     - 2151s
     0     0 124115.500    0 1599          - 124115.500      -     - 2205s
     0     0 124115.500    0 1496          - 124115.500      -     - 2337s
     0     0 124115.500    0 1595          - 124115.500      -     - 2397s
     0     0 124115.500    0 1480          - 124115.500      -     - 2524s
     0     0 124115.500    0 1480          - 124115.500      -     - 2574s

Cutting planes:
  Learned: 4
  Gomory: 7
  Implied bound: 1581
  Clique: 53
  MIR: 820
  StrongCG: 1
  RLT: 1
  Relax-and-lift: 5883

Explored 1 nodes (107245 simplex iterations) in 3600.05 seconds
Thread count was 4 (of 4 available processors)

Solution count 0

Time limit reached
Best objective -, best bound 1.241160000000e+05, gap -
Gurobi 9.1.2: time limit without a feasible solution
107245 simplex iterations
1 branch-and-cut nodes
No basis.
No primal or dual variables returned.
sum{(i,j) in Arcs, k in K: i != j} c[i,j]*x[i,j,k] + sum{(i,j) in Arcs, 
  k in K} cto[i,j]*x[i,j,k] = 0

sum{(i,j) in Arcs, k in K: i != j} c[i,j]*x[i,j,k] = 0

sum{(i,j) in Arcs, k in K: i != j} cto[i,j]*x[i,j,k] = 0

COST = 0

